3376.12
41 44 80 80 41 65 41 3 65 41 44 67 80 3 80 65 3 65 44 65 3 80 41 3 3 80 80 46 68 3 41 23 65 41 80 41 41 44 65 41 80 65 44 41 80 3 3 3 80 80 44 44 65 80 41 80 80 65 80 44 80 44 41 65 72 65 65 80 44 41 41 80 80 44 41 65 80 41 41 41 3 80 80 41 80 41 65 65 44 23 41 41 41 41 41 65 80 80 65 80 
